9
73
105
137
201
233
27
59
91
123
155
187
219
251
31
63
95
127
159
191
45
109
141
173
205
6
38
70
102
134
166
198
230
52
84
116
148
180
212
244
34
66
98
130
162
194
226
16
48
80
144
176
208
184
56
152
88
216
87
215
23
183
145
24
234
55
17
62
177
209
81
202
165
190
10
30
106
158
99
229
151
94
197
49
74
172
126
227
69
133
195
37
67
240
223
138
108
13
101
163
35
112
5
44
113
60
179
140
222
7
204
2
71
211
252
248
85
115
51
213
161
117
92
131
77
250
156
129
